NAME: map1_180
TYPE: TSP
COMMENT: autogenerated using a wonderful map creator
DIMENSION: 210
EDGE_WEIGHT_TYPE: EUC_2D
NODE_COORD_SECTION
1 34.0 126.0
2 35.0 126.0
3 36.0 126.0
4 37.0 126.0
5 38.0 126.0
6 2.0 39.0
7 2.0 38.0
8 88.0 2.0
9 87.0 2.0
10 86.0 2.0
11 85.0 2.0
12 84.0 2.0
13 126.0 75.0
14 126.0 74.0
15 126.0 73.0
16 39.0 126.0
17 40.0 126.0
18 41.0 126.0
19 42.0 126.0
20 43.0 126.0
21 2.0 37.0
22 2.0 36.0
23 2.0 35.0
24 83.0 2.0
25 82.0 2.0
26 81.0 2.0
27 80.0 2.0
28 79.0 2.0
29 126.0 72.0
30 126.0 71.0
31 34.0 127.0
32 35.0 127.0
33 36.0 127.0
34 37.0 127.0
35 38.0 127.0
36 1.0 39.0
37 1.0 38.0
38 88.0 1.0
39 87.0 1.0
40 86.0 1.0
41 85.0 1.0
42 84.0 1.0
43 127.0 75.0
44 127.0 74.0
45 127.0 73.0
46 39.0 127.0
47 40.0 127.0
48 41.0 127.0
49 42.0 127.0
50 43.0 127.0
51 1.0 37.0
52 1.0 36.0
53 1.0 35.0
54 83.0 1.0
55 82.0 1.0
56 81.0 1.0
57 80.0 1.0
58 79.0 1.0
59 127.0 72.0
60 127.0 71.0
61 38.0 23.0
62 56.0 1.0
63 113.0 44.0
64 118.0 58.0
65 73.0 90.0
66 127.0 61.0
67 63.0 34.0
68 93.0 22.0
69 16.0 120.0
70 122.0 122.0
71 111.0 101.0
72 94.0 30.0
73 83.0 103.0
74 40.0 13.0
75 21.0 64.0
76 32.0 30.0
77 7.0 74.0
78 34.0 12.0
79 25.0 52.0
80 102.0 18.0
81 57.0 105.0
82 97.0 31.0
83 48.0 111.0
84 65.0 127.0
85 54.0 42.0
86 37.0 90.0
87 111.0 39.0
88 106.0 107.0
89 48.0 56.0
90 52.0 81.0
91 26.0 7.0
92 35.0 74.0
93 4.0 50.0
94 73.0 21.0
95 39.0 19.0
96 19.0 50.0
97 65.0 102.0
98 11.0 46.0
99 39.0 92.0
100 89.0 29.0
101 123.0 116.0
102 95.0 45.0
103 31.0 106.0
104 118.0 19.0
105 104.0 121.0
106 5.0 96.0
107 89.0 47.0
108 24.0 12.0
109 87.0 114.0
110 21.0 68.0
111 91.0 114.0
112 36.0 4.0
113 56.0 16.0
114 29.0 29.0
115 46.0 45.0
116 85.0 125.0
117 82.0 108.0
118 111.0 89.0
119 9.0 78.0
120 80.0 92.0
121 67.0 49.0
122 59.0 109.0
123 68.0 47.0
124 86.0 83.0
125 76.0 60.0
126 13.0 53.0
127 59.0 29.0
128 7.0 9.0
129 48.0 10.0
130 25.0 24.0
131 48.0 74.0
132 62.0 73.0
133 56.0 2.0
134 65.0 99.0
135 76.0 99.0
136 62.0 82.0
137 25.0 97.0
138 10.0 108.0
139 63.0 35.0
140 3.0 78.0
141 33.0 67.0
142 35.0 9.0
143 86.0 112.0
144 127.0 28.0
145 2.0 70.0
146 116.0 37.0
147 54.0 117.0
148 20.0 14.0
149 32.0 98.0
150 11.0 118.0
151 55.0 81.0
152 23.0 28.0
153 118.0 64.0
154 80.0 25.0
155 31.0 96.0
156 63.0 58.0
157 59.0 106.0
158 16.0 16.0
159 70.0 51.0
160 90.0 84.0
161 5.0 98.0
162 108.0 90.0
163 6.0 8.0
164 63.0 76.0
165 85.0 106.0
166 15.0 84.0
167 6.0 81.0
168 20.0 80.0
169 126.0 52.0
170 122.0 45.0
171 94.0 118.0
172 95.0 19.0
173 15.0 38.0
174 51.0 3.0
175 121.0 1.0
176 54.0 103.0
177 19.0 81.0
178 53.0 113.0
179 93.0 103.0
180 95.0 76.0
181 115.0 88.0
182 55.0 12.0
183 26.0 95.0
184 81.0 31.0
185 112.0 46.0
186 35.0 107.0
187 89.0 87.0
188 34.0 93.0
189 116.0 25.0
190 85.0 74.0
191 122.0 123.0
192 63.0 53.0
193 119.0 106.0
194 19.0 37.0
195 108.0 39.0
196 111.0 120.0
197 58.0 50.0
198 57.0 30.0
199 80.0 77.0
200 24.0 118.0
201 96.0 15.0
202 111.0 31.0
203 8.0 76.0
204 82.0 123.0
205 92.0 100.0
206 15.0 72.0
207 100.0 58.0
208 41.0 36.0
209 97.0 13.0
210 40.0 80.0
211 90.0 29.0
212 24.0 102.0
213 73.0 31.0
214 61.0 11.0
215 118.0 63.0
216 10.0 2.0
217 8.0 124.0
218 108.0 126.0
219 46.0 53.0
220 56.0 33.0
221 85.0 69.0
222 87.0 39.0
223 49.0 3.0
224 54.0 118.0
225 93.0 100.0
226 122.0 26.0
227 49.0 21.0
228 126.0 106.0
229 69.0 118.0
230 118.0 111.0
231 36.0 69.0
232 56.0 17.0
233 19.0 71.0
234 45.0 35.0
235 14.0 93.0
236 104.0 60.0
237 23.0 50.0
238 120.0 1.0
239 103.0 15.0
240 23.0 114.0
START_DEPOT_SECTION
1
2
3
4
5
6
7
8
9
10
11
12
13
14
15
16
17
18
19
20
21
22
23
24
25
26
27
28
29
30
-1
END_DEPOT_SECTION
31
32
33
34
35
36
37
38
39
40
41
42
43
44
45
46
47
48
49
50
51
52
53
54
55
56
57
58
59
60
-1
EOF
